 H  O Si                                
   1.00000000000000     
     9.8615217208000008    0.0000000000000000    0.0000000000000000
    -4.9307608604000004    8.5403283301999995    0.0000000000000000
     0.0000000000000000    0.0000000000000000   35.3081836699999982
   H    O    Si
    16    80    36
Selective dynamics
Direct
  0.8248184784755704 -0.1196043339722448  0.0359661787582928   T   T   T
  0.1638842196940217  0.8746065023439492  0.5028053307148139   T   T   T
  0.6639431188822423  0.8745037047181634  0.5028044611005102   T   T   T
  0.3559741834509018  0.6443998267560114  0.5000545861017194   T   T   T
  0.8560944492707829  0.1445779974072396  0.5000758496571003   T   T   T
  0.3562712182285026  0.1446052865436343  0.5000616311292679   T   T   T
  0.6639316665273264  0.3747316790217664  0.5027836702016130   T   T   T
  0.8564019159397793  0.6445795581471594  0.5000930599606463   T   T   T
  0.1638591742167379  0.3745176033470483  0.5027842415113203   T   T   T
  0.0182500662864315  0.8034835208529573  0.0334222455420667   T   T   T
  0.8247592994786667  0.3803120789652945  0.0359716774377815   T   T   T
  0.0181843608019533  0.3035488435612385  0.0334029130161867   T   T   T
  0.3247326210126218  0.3803236011311565  0.0359752449898052   T   T   T
  0.5183169955032874  0.3036057113394570  0.0334662557443013   T   T   T
  0.3248641523008879 -0.1195419518697719  0.0359516258281516   T   T   T
  0.5182982289920929  0.8034521617066006  0.0334613186214111   T   T   T
  0.2127175415022292  0.7769452322892173  0.1335323872693398   T   T   T
  0.4319881495775269  0.6327308471123946  0.0989289761711787   T   T   T
  0.1523465934890575  0.5783719900234321  0.0764924935920847   T   T   T
  0.2786867845498568  0.4335639506981309  0.5029408023674459   T   T   T
  0.0304094625091574  0.5162964329726721  0.4599184297125676   T   T   T
  0.3001448430828128  0.9188507051979166  0.1997060932163160   T   T   T
  0.2127111206571136  0.2768961777904391  0.1335312897821062   T   T   T
  0.4320607221474754  0.1328118276334087  0.0989179204465368   T   T   T
  0.3829683820258546  0.2100771282690928  0.1824435579611301   T   T   T
  0.5159286711899048  0.9752770010201505  0.1450789642973076   T   T   T
  0.5159132228419701  0.4752741381801817  0.1450849978056476   T   T   T
  0.1524062428857775  0.0783658239596386  0.0764844326316651   T   T   T
  0.7787665622435198  0.4336809342591702  0.5029399663842661   T   T   T
  0.9233274698771546  0.7573947009191023  0.4950745021210911   T   T   T
  0.1591838944487733  0.0549894869999932  0.2341328465812538   F   F   F
  0.1591838944487733  0.5549894870000003  0.2341328465812538   F   F   F
  0.4537805964487731  0.6441829059999975  0.2508578929010952   F   F   F
  0.2287895134487741  0.7816873565000009  0.2854529823885699   F   F   F
  0.5233862299487697  0.4870906474999970  0.3021780009955464   F   F   F
  0.4537805964487731  0.1441829060000046  0.2508578929010952   F   F   F
  0.4232055322228205  0.2574098466300634  0.4950514196913078   T   T   T
  0.9033890035838222  0.7469924631383807  0.0331142496442563   T   T   T
  0.7582052774582646  0.4264255737396748  0.0411708229554935   T   T   T
  0.4034538988321538  0.2469411680068668  0.0331078703386565   T   T   T
  0.2581477672309817 -0.0736386454101536  0.0411703172636091   T   T   T
  0.4034497112600234  0.7468283879601176  0.0331020711313895   T   T   T
  0.2580775940945358  0.4263334086076795  0.0411562867759197   T   T   T
  0.9033042188650551  0.2469651041666906  0.0330816782766883   T   T   T
  0.7581765416195372 -0.0735880471324723  0.0411619607949253   T   T   T
  0.3829697622770420  0.7101095760864319  0.1824495729148231   T   T   T
  0.5303623828939673  0.0162437216326219  0.4599270030207691   T   T   T
  0.2787260286140403  0.9336254741198301  0.5029414899700909   T   T   T
  0.4685644774022794  0.1530875722882803  0.4028704284575736   T   T   T
  0.6523703153694020  0.5783117269602643  0.0764941272676911   T   T   T
  0.6591838944487733  0.0549894869999932  0.2341328465812538   F   F   F
  0.8829471434646350  0.2100763870968326  0.1824445263017391   T   T   T
  0.4686051696677602  0.6531176564434209  0.4028732008057602   T   T   T
  0.8858817569487698  0.7120817305000031  0.3367731181958789   F   F   F
  0.2504836105209615  0.7908648399058776  0.4371997771020263   T   T   T
  0.5303887315870567  0.5163288277898586  0.4599228111780922   T   T   T
  0.4229455531411065  0.7572060560410145  0.4950446425967360   T   T   T
  0.7507373024550801  0.7907312182990205  0.4372081333608708   T   T   T
  0.9685827812084750  0.6531092271726892  0.4028652872069680   T   T   T
  0.6660432003872353  0.5502371838788508  0.3909051967272354   T   T   T
  0.7966883529487703  0.4174850284999962  0.3534981234083077   F   F   F
  0.0233862299487697  0.4870906474999970  0.3021780009955464   F   F   F
  0.0158767961584358  0.9752482956946644  0.1450731747778568   T   T   T
  0.7287895134487741  0.7816873565000009  0.2854529823885699   F   F   F
  0.9537805964487731  0.6441829059999975  0.2508578929010952   F   F   F
  0.6591838944487733  0.5549894870000003  0.2341328465812538   F   F   F
  0.7787646274137876  0.9335792058287750  0.5029452379895361   T   T   T
  0.6523634678809598  0.0783273297766605  0.0764869259220734   T   T   T
  0.9321008270216371  0.1328809742572139  0.0989032160428798   T   T   T
  0.7127111326083534  0.2769185334256805  0.1335300976238480   T   T   T
  0.9319747511032198  0.6327885732351757  0.0989351168564561   T   T   T
  0.2506299609317148  0.2907832486695335  0.4371917721887311   T   T   T
  0.3001741402469978  0.4188748916794627  0.1996991949461869   T   T   T
  0.7966883529487703  0.9174850284999962  0.3534981234083077   F   F   F
  0.8829269890680360  0.7100788925106883  0.1824481554763129   T   T   T
  0.8001391648346324  0.4188477323364174  0.1996998875304911   T   T   T
  0.9231117897361495  0.2573536761678248  0.4950414082816168   T   T   T
  0.8001367123121513  0.9188450964807607  0.1997065612676149   T   T   T
  0.0304345104609560  0.0163640328198423  0.4599352504939456   T   T   T
  0.9686023071919261  0.1531157676871832  0.4028682376308166   T   T   T
  0.7126660269462278  0.7769181332730206  0.1335391100624801   T   T   T
  0.6660668694442549  0.0502645764700200  0.3909332588183285   T   T   T
  0.8858817569487698  0.2120817305000031  0.3367731181958789   F   F   F
  0.0158974318477513  0.4752562860832846  0.1450747609885674   T   T   T
  0.0233862299487697  0.9870906474999970  0.3021780009955464   F   F   F
  0.9537805964487731  0.1441829060000046  0.2508578929010952   F   F   F
  0.7504861154688122  0.2908580734264911  0.4372115614430985   T   T   T
  0.1660437427571492  0.5502205284993187  0.3909233448903579   T   T   T
  0.2966883529487703  0.4174850284999962  0.3534981234083077   F   F   F
  0.3858817569487698  0.7120817305000031  0.3367731181958789   F   F   F
  0.2287895134487741  0.2816873565000009  0.2854529823885699   F   F   F
  0.5233862299487697  0.9870906474999970  0.3021780009955464   F   F   F
  0.3858817569487698  0.2120817305000031  0.3367731181958789   F   F   F
  0.2966883529487703  0.9174850284999962  0.3534981234083077   F   F   F
  0.1659853372161666  0.0501644995604755  0.3909111642238797   T   T   T
  0.7287895134487741  0.2816873565000009  0.2854529823885699   F   F   F
  0.8583562424487710  0.3495861889999929  0.3194755526674982   F   F   F
  0.3242138674487691  0.5825149715000038  0.2168353083038568   F   F   F
  0.0912850549487700  0.6166573765000010  0.2681554307166110   F   F   F
  0.0912850549487700  0.1166573764999939  0.2681554307166110   F   F   F
  0.8650370250313199  0.8672670568809986  0.4741033781396665   T   T   T
  0.8242138674487691  0.0825149715000038  0.2168353083038568   F   F   F
  0.8527382337851824  0.3456789352338045  0.1650283532628833   T   T   T
  0.0792448889037868  0.1160260144199642  0.1138049996571163   T   T   T
  0.8242138674487691  0.5825149715000038  0.2168353083038568   F   F   F
  0.8527101288357812  0.8456780407065304  0.1650295319556960   T   T   T
  0.0792139251013356  0.6160605977564820  0.1138146249732789   T   T   T
  0.8174465848567601  0.5948399585041336  0.0620984713587366   T   T   T
  0.8296136478516377  0.5840273818063634  0.3711086240057154   T   T   T
  0.8649281128086951  0.3673095873632053  0.4740859219714626   T   T   T
  0.3648724593450578  0.8672432980571354  0.4740912807844668   T   T   T
  0.8296028202550618  0.0840295938004512  0.3711137894983191   T   T   T
  0.3174727041968893  0.0948283783109365  0.0620936555840187   T   T   T
  0.5792538254107951  0.1160395482541444  0.1138078919197252   T   T   T
  0.3527468599539338  0.3456701341859568  0.1650256958239573   T   T   T
  0.3242138674487691  0.0825149715000038  0.2168353083038568   F   F   F
  0.8583562424487710  0.8495861889999929  0.3194755526674982   F   F   F
  0.5912850549487700  0.1166573764999939  0.2681554307166110   F   F   F
  0.3295959832717000  0.0840189836650209  0.3711126074940085   T   T   T
  0.3649345595650642  0.3672861995514466  0.4740904844325541   T   T   T
  0.3173992655171833  0.5947678030536545  0.0621006680567901   T   T   T
  0.5792322356439202  0.6160227897217766  0.1138139936809230   T   T   T
  0.1029010894229435  0.1267934860660195  0.4224650634534640   T   T   T
  0.3527580299087783  0.8456910946692472  0.1650286668951073   T   T   T
  0.5912850549487700  0.6166573765000010  0.2681554307166110   F   F   F
  0.3583562424487710  0.8495861889999929  0.3194755526674982   F   F   F
  0.3296119008056231  0.5840306061662907  0.3711151762776974   T   T   T
  0.6029248867185200  0.6268054680905306  0.4224678131549392   T   T   T
  0.1028864078296456  0.6268216774179758  0.4224675761399244   T   T   T
  0.8174494944477498  0.0948633105210672  0.0620833728152628   T   T   T
  0.3583562424487710  0.3495861889999929  0.3194755526674982   F   F   F
  0.6028630634226063  0.1268123608910325  0.4224801321045828   T   T   T
 
  0.00000000E+00  0.00000000E+00  0.00000000E+00
  0.00000000E+00  0.00000000E+00  0.00000000E+00
  0.00000000E+00  0.00000000E+00  0.00000000E+00
  0.00000000E+00  0.00000000E+00  0.00000000E+00
  0.00000000E+00  0.00000000E+00  0.00000000E+00
  0.00000000E+00  0.00000000E+00  0.00000000E+00
  0.00000000E+00  0.00000000E+00  0.00000000E+00
  0.00000000E+00  0.00000000E+00  0.00000000E+00
  0.00000000E+00  0.00000000E+00  0.00000000E+00
  0.00000000E+00  0.00000000E+00  0.00000000E+00
  0.00000000E+00  0.00000000E+00  0.00000000E+00
  0.00000000E+00  0.00000000E+00  0.00000000E+00
  0.00000000E+00  0.00000000E+00  0.00000000E+00
  0.00000000E+00  0.00000000E+00  0.00000000E+00
  0.00000000E+00  0.00000000E+00  0.00000000E+00
  0.00000000E+00  0.00000000E+00  0.00000000E+00
  0.00000000E+00  0.00000000E+00  0.00000000E+00
  0.00000000E+00  0.00000000E+00  0.00000000E+00
  0.00000000E+00  0.00000000E+00  0.00000000E+00
  0.00000000E+00  0.00000000E+00  0.00000000E+00
  0.00000000E+00  0.00000000E+00  0.00000000E+00
  0.00000000E+00  0.00000000E+00  0.00000000E+00
  0.00000000E+00  0.00000000E+00  0.00000000E+00
  0.00000000E+00  0.00000000E+00  0.00000000E+00
  0.00000000E+00  0.00000000E+00  0.00000000E+00
  0.00000000E+00  0.00000000E+00  0.00000000E+00
  0.00000000E+00  0.00000000E+00  0.00000000E+00
  0.00000000E+00  0.00000000E+00  0.00000000E+00
  0.00000000E+00  0.00000000E+00  0.00000000E+00
  0.00000000E+00  0.00000000E+00  0.00000000E+00
  0.00000000E+00  0.00000000E+00  0.00000000E+00
  0.00000000E+00  0.00000000E+00  0.00000000E+00
  0.00000000E+00  0.00000000E+00  0.00000000E+00
  0.00000000E+00  0.00000000E+00  0.00000000E+00
  0.00000000E+00  0.00000000E+00  0.00000000E+00
  0.00000000E+00  0.00000000E+00  0.00000000E+00
  0.00000000E+00  0.00000000E+00  0.00000000E+00
  0.00000000E+00  0.00000000E+00  0.00000000E+00
  0.00000000E+00  0.00000000E+00  0.00000000E+00
  0.00000000E+00  0.00000000E+00  0.00000000E+00
  0.00000000E+00  0.00000000E+00  0.00000000E+00
  0.00000000E+00  0.00000000E+00  0.00000000E+00
  0.00000000E+00  0.00000000E+00  0.00000000E+00
  0.00000000E+00  0.00000000E+00  0.00000000E+00
  0.00000000E+00  0.00000000E+00  0.00000000E+00
  0.00000000E+00  0.00000000E+00  0.00000000E+00
  0.00000000E+00  0.00000000E+00  0.00000000E+00
  0.00000000E+00  0.00000000E+00  0.00000000E+00
  0.00000000E+00  0.00000000E+00  0.00000000E+00
  0.00000000E+00  0.00000000E+00  0.00000000E+00
  0.00000000E+00  0.00000000E+00  0.00000000E+00
  0.00000000E+00  0.00000000E+00  0.00000000E+00
  0.00000000E+00  0.00000000E+00  0.00000000E+00
  0.00000000E+00  0.00000000E+00  0.00000000E+00
  0.00000000E+00  0.00000000E+00  0.00000000E+00
  0.00000000E+00  0.00000000E+00  0.00000000E+00
  0.00000000E+00  0.00000000E+00  0.00000000E+00
  0.00000000E+00  0.00000000E+00  0.00000000E+00
  0.00000000E+00  0.00000000E+00  0.00000000E+00
  0.00000000E+00  0.00000000E+00  0.00000000E+00
  0.00000000E+00  0.00000000E+00  0.00000000E+00
  0.00000000E+00  0.00000000E+00  0.00000000E+00
  0.00000000E+00  0.00000000E+00  0.00000000E+00
  0.00000000E+00  0.00000000E+00  0.00000000E+00
  0.00000000E+00  0.00000000E+00  0.00000000E+00
  0.00000000E+00  0.00000000E+00  0.00000000E+00
  0.00000000E+00  0.00000000E+00  0.00000000E+00
  0.00000000E+00  0.00000000E+00  0.00000000E+00
  0.00000000E+00  0.00000000E+00  0.00000000E+00
  0.00000000E+00  0.00000000E+00  0.00000000E+00
  0.00000000E+00  0.00000000E+00  0.00000000E+00
  0.00000000E+00  0.00000000E+00  0.00000000E+00
  0.00000000E+00  0.00000000E+00  0.00000000E+00
  0.00000000E+00  0.00000000E+00  0.00000000E+00
  0.00000000E+00  0.00000000E+00  0.00000000E+00
  0.00000000E+00  0.00000000E+00  0.00000000E+00
  0.00000000E+00  0.00000000E+00  0.00000000E+00
  0.00000000E+00  0.00000000E+00  0.00000000E+00
  0.00000000E+00  0.00000000E+00  0.00000000E+00
  0.00000000E+00  0.00000000E+00  0.00000000E+00
  0.00000000E+00  0.00000000E+00  0.00000000E+00
  0.00000000E+00  0.00000000E+00  0.00000000E+00
  0.00000000E+00  0.00000000E+00  0.00000000E+00
  0.00000000E+00  0.00000000E+00  0.00000000E+00
  0.00000000E+00  0.00000000E+00  0.00000000E+00
  0.00000000E+00  0.00000000E+00  0.00000000E+00
  0.00000000E+00  0.00000000E+00  0.00000000E+00
  0.00000000E+00  0.00000000E+00  0.00000000E+00
  0.00000000E+00  0.00000000E+00  0.00000000E+00
  0.00000000E+00  0.00000000E+00  0.00000000E+00
  0.00000000E+00  0.00000000E+00  0.00000000E+00
  0.00000000E+00  0.00000000E+00  0.00000000E+00
  0.00000000E+00  0.00000000E+00  0.00000000E+00
  0.00000000E+00  0.00000000E+00  0.00000000E+00
  0.00000000E+00  0.00000000E+00  0.00000000E+00
  0.00000000E+00  0.00000000E+00  0.00000000E+00
  0.00000000E+00  0.00000000E+00  0.00000000E+00
  0.00000000E+00  0.00000000E+00  0.00000000E+00
  0.00000000E+00  0.00000000E+00  0.00000000E+00
  0.00000000E+00  0.00000000E+00  0.00000000E+00
  0.00000000E+00  0.00000000E+00  0.00000000E+00
  0.00000000E+00  0.00000000E+00  0.00000000E+00
  0.00000000E+00  0.00000000E+00  0.00000000E+00
  0.00000000E+00  0.00000000E+00  0.00000000E+00
  0.00000000E+00  0.00000000E+00  0.00000000E+00
  0.00000000E+00  0.00000000E+00  0.00000000E+00
  0.00000000E+00  0.00000000E+00  0.00000000E+00
  0.00000000E+00  0.00000000E+00  0.00000000E+00
  0.00000000E+00  0.00000000E+00  0.00000000E+00
  0.00000000E+00  0.00000000E+00  0.00000000E+00
  0.00000000E+00  0.00000000E+00  0.00000000E+00
  0.00000000E+00  0.00000000E+00  0.00000000E+00
  0.00000000E+00  0.00000000E+00  0.00000000E+00
  0.00000000E+00  0.00000000E+00  0.00000000E+00
  0.00000000E+00  0.00000000E+00  0.00000000E+00
  0.00000000E+00  0.00000000E+00  0.00000000E+00
  0.00000000E+00  0.00000000E+00  0.00000000E+00
  0.00000000E+00  0.00000000E+00  0.00000000E+00
  0.00000000E+00  0.00000000E+00  0.00000000E+00
  0.00000000E+00  0.00000000E+00  0.00000000E+00
  0.00000000E+00  0.00000000E+00  0.00000000E+00
  0.00000000E+00  0.00000000E+00  0.00000000E+00
  0.00000000E+00  0.00000000E+00  0.00000000E+00
  0.00000000E+00  0.00000000E+00  0.00000000E+00
  0.00000000E+00  0.00000000E+00  0.00000000E+00
  0.00000000E+00  0.00000000E+00  0.00000000E+00
  0.00000000E+00  0.00000000E+00  0.00000000E+00
  0.00000000E+00  0.00000000E+00  0.00000000E+00
  0.00000000E+00  0.00000000E+00  0.00000000E+00
  0.00000000E+00  0.00000000E+00  0.00000000E+00
  0.00000000E+00  0.00000000E+00  0.00000000E+00
  0.00000000E+00  0.00000000E+00  0.00000000E+00
